p cnf 113 360
-1 10 0 
1 112 0 
-97 -98 109 0 
-97 98 70 0 
-98 -19 99 0 
-98 19 56 0 
-99 -27 0 
-99 27 100 0 
-100 -29 101 0 
-100 29 56 0 
-101 -32 0 
-101 32 102 0 
-102 -44 103 0 
-102 44 104 0 
-103 49 0 
-104 -52 48 0 
-104 52 105 0 
-105 -56 103 0 
-105 56 106 0 
-106 -61 48 0 
-106 61 107 0 
-10 -11 12 0 
-10 11 14 0 
-107 -65 48 0 
-107 65 108 0 
-108 -68 48 0 
-108 68 56 0 
-109 -110 70 0 
-109 110 73 0 
-110 111 0 
-112 -113 13 0 
-112 -13 113 0 
-11 4 0 
-12 -13 0 
-14 -15 17 0 
-14 15 112 0 
-15 16 0 
-15 6 0 
-16 8 0 
-1 2 6 0 
-17 -18 70 0 
-17 18 74 0 
-18 -19 26 0 
-18 19 32 0 
-19 20 23 0 
-20 -21 0 
-21 -22 5 0 
-21 -5 22 0 
-23 -24 0 
-24 -9 25 0 
-24 -25 9 0 
-26 27 28 0 
-2 -3 0 
-27 5 0 
-28 -29 31 0 
-28 29 32 0 
-29 23 0 
-29 30 0 
-30 9 0 
-31 -32 0 
-31 32 43 0 
-32 33 0 
-32 41 0 
-33 34 0 
-33 39 0 
-34 35 0 
-34 37 0 
-35 -36 0 
-3 -4 5 0 
-3 -5 4 0 
-37 -38 0 
-39 -40 0 
-41 -42 0 
-43 -44 48 0 
-43 44 51 0 
-44 41 0 
-44 45 0 
-45 39 0 
-45 46 0 
-46 37 0 
-46 47 0 
-47 36 0 
-48 -49 0 
-48 49 0 
-49 50 0 
-51 -52 48 0 
-51 52 55 0 
-52 41 0 
-52 53 0 
-53 46 0 
-53 54 0 
-54 40 0 
-55 -56 48 0 
-55 56 60 0 
-56 41 0 
-56 57 0 
-57 39 0 
-57 58 0 
-58 35 0 
-58 59 0 
-59 38 0 
-60 -61 48 0 
-60 61 64 0 
-61 41 0 
-61 62 0 
-62 39 0 
-62 63 0 
-63 47 0 
-63 59 0 
-64 -65 48 0 
-64 65 67 0 
-65 41 0 
-65 66 0 
-66 34 0 
-66 54 0 
-6 -7 0 
-67 -68 48 0 
-67 68 32 0 
-68 41 0 
-68 69 0 
-69 54 0 
-69 58 0 
-70 -71 12 0 
-70 71 73 0 
-71 72 0 
-73 13 0 
-74 -75 70 0 
-74 75 86 0 
-75 -19 76 0 
-75 19 44 0 
-76 -27 0 
-76 27 77 0 
-7 -9 8 0 
-7 -8 9 0 
-77 -29 78 0 
-77 29 44 0 
-78 32 79 0 
-79 -44 48 0 
-79 44 80 0 
-80 -52 81 0 
-80 52 82 0 
-81 -49 0 
-82 -56 48 0 
-82 56 83 0 
-83 -61 81 0 
-83 61 84 0 
-84 -65 48 0 
-84 65 85 0 
-85 -68 81 0 
-85 68 44 0 
-86 -87 70 0 
-86 87 97 0 
-87 -19 88 0 
-87 19 52 0 
-88 -27 0 
-88 27 89 0 
-89 -29 90 0 
-89 29 52 0 
-90 -32 0 
-90 32 91 0 
-91 -44 81 0 
-91 44 92 0 
-92 -52 48 0 
-92 52 93 0 
-93 -56 48 0 
-93 56 94 0 
-94 -61 48 0 
-94 61 95 0 
-95 -65 48 0 
-95 65 96 0 
-96 -68 48 0 
-96 68 52 0 
97 -98 -109 0 
97 -109 -70 0 
97 98 -70 0 
98 -99 -56 0 
98 -19 -99 0 
98 19 -56 0 
99 27 -100 0 
100 -101 -56 0 
100 -29 -101 0 
100 29 -56 0 
101 32 -102 0 
102 -103 -104 0 
102 -44 -103 0 
102 44 -104 0 
103 -49 0 
104 -48 -105 0 
104 -52 -48 0 
104 52 -105 0 
105 -103 -106 0 
105 -56 -103 0 
105 56 -106 0 
106 -48 -107 0 
106 -61 -48 0 
106 61 -107 0 
10 -11 -12 0 
10 -12 -14 0 
10 11 -14 0 
107 -48 -108 0 
107 -65 -48 0 
107 65 -108 0 
108 -48 -56 0 
108 -68 -48 0 
108 68 -56 0 
109 -110 -70 0 
109 -70 -73 0 
109 110 -73 0 
110 -111 0 
112 -13 -113 0 
112 13 113 0 
11 -4 0 
12 13 0 
14 -15 -17 0 
14 -17 -112 0 
14 15 -112 0 
15 -6 -16 0 
16 -8 0 
1 -2 0 
1 -6 0 
17 -18 -70 0 
17 -70 -74 0 
17 18 -74 0 
18 -19 -26 0 
18 -26 -32 0 
18 19 -32 0 
19 -20 0 
19 -23 0 
20 21 0 
21 -5 -22 0 
21 5 22 0 
23 24 0 
24 -9 -25 0 
24 9 25 0 
26 -28 0 
26 -27 0 
26 27 -28 0 
2 3 0 
27 -5 0 
28 -29 -31 0 
28 -31 -32 0 
28 29 -32 0 
29 -23 -30 0 
30 -9 0 
31 32 -43 0 
32 -33 -41 0 
33 -34 -39 0 
34 -35 -37 0 
35 36 0 
3 -4 -5 0 
3 4 5 0 
37 38 0 
39 40 0 
41 42 0 
43 -44 -48 0 
43 -48 -51 0 
43 44 -51 0 
44 -45 -41 0 
45 -46 -39 0 
46 -47 -37 0 
47 -36 0 
49 -50 0 
51 -48 -55 0 
51 -52 -48 0 
51 52 -55 0 
52 -53 -41 0 
53 -46 -54 0 
54 -40 0 
55 -48 -60 0 
55 -56 -48 0 
55 56 -60 0 
56 -57 -41 0 
57 -58 -39 0 
58 -35 -59 0 
59 -38 0 
60 -48 -64 0 
60 -61 -48 0 
60 61 -64 0 
61 -62 -41 0 
62 -63 -39 0 
63 -47 -59 0 
64 -48 -67 0 
64 -65 -48 0 
64 65 -67 0 
65 -66 -41 0 
66 -34 -54 0 
6 7 0 
67 -48 -32 0 
67 -68 -48 0 
67 68 -32 0 
68 -69 -41 0 
69 -58 -54 0 
70 -12 -73 0 
70 -71 -12 0 
70 71 -73 0 
71 -72 0 
73 -13 0 
74 -70 -86 0 
74 -75 -70 0 
74 75 -86 0 
75 -19 -76 0 
75 -76 -44 0 
75 19 -44 0 
76 27 -77 0 
7 -8 -9 0 
7 8 9 0 
77 -29 -78 0 
77 -78 -44 0 
77 29 -44 0 
78 -79 0 
78 -32 0 
78 32 -79 0 
79 -44 -48 0 
79 -48 -80 0 
79 44 -80 0 
80 -52 -81 0 
80 -81 -82 0 
80 52 -82 0 
81 49 0 
82 -48 -83 0 
82 -56 -48 0 
82 56 -83 0 
83 -61 -81 0 
83 -81 -84 0 
83 61 -84 0 
84 -48 -85 0 
84 -65 -48 0 
84 65 -85 0 
85 -68 -81 0 
85 -81 -44 0 
85 68 -44 0 
86 -70 -97 0 
86 -87 -70 0 
86 87 -97 0 
87 -19 -88 0 
87 -88 -52 0 
87 19 -52 0 
88 27 -89 0 
89 -29 -90 0 
89 -90 -52 0 
89 29 -52 0 
90 32 -91 0 
91 -44 -81 0 
91 -81 -92 0 
91 44 -92 0 
92 -48 -93 0 
92 -52 -48 0 
92 52 -93 0 
93 -48 -94 0 
93 -56 -48 0 
93 56 -94 0 
94 -48 -95 0 
94 -61 -48 0 
94 61 -95 0 
95 -48 -96 0 
95 -65 -48 0 
95 65 -96 0 
96 -48 -52 0 
96 -68 -48 0 
96 68 -52 0 
